14
raw_data/rcpsp/CV.xlsx cv14
Time limit set to 60 seconds
Running CP solver
/home/omastto1/General-Optimization-Solver/src/solvers/rcpsp.py:31(stream:46:6): Warning: Cumulative expression 'pulse': height is zero, expression is zero everywhere.
                                                                                            VarCumulAtom_87 = pulse("0", 0)
/home/omastto1/General-Optimization-Solver/src/solvers/rcpsp.py:31(stream:46:98): Warning: Cumulative expression 'pulse': height is zero, expression is zero everywhere.
                                                                                             VarCumulAtom_93 = pulse("6", 0)
/home/omastto1/General-Optimization-Solver/src/solvers/rcpsp.py:31(stream:46:113): Warning: Cumulative expression 'pulse': height is zero, expression is zero everywhere.
                                                                                              VarCumulAtom_94 = pulse("7", 0)
/home/omastto1/General-Optimization-Solver/src/solvers/rcpsp.py:31(stream:46:400): Warning: Cumulative expression 'pulse': height is zero, expression is zero everywhere.
                                                                                              VarCumulAtom_112 = pulse("25", 0)
/home/omastto1/General-Optimization-Solver/src/solvers/rcpsp.py:31(stream:47:6): Warning: Cumulative expression 'pulse': height is zero, expression is zero everywhere.
                                                                                            VarCumulAtom_116 = pulse("0", 0)
/home/omastto1/General-Optimization-Solver/src/solvers/rcpsp.py:31(stream:47:400): Warning: Cumulative expression 'pulse': height is zero, expression is zero everywhere.
                                                                                              VarCumulAtom_141 = pulse("25", 0)
 ! --------------------------------------------------- CP Optimizer 20.1.0.0 --
 ! Minimization problem - 27 variables, 46 constraints
 ! TimeLimit            = 60
 ! Workers              = 14
 ! LogVerbosity         = Terse
 ! Initial process time : 0.01s (0.00s extraction + 0.01s propagation)
 !  . Log search space  : 142.1 (before), 142.1 (after)
 !  . Memory usage      : 550.8 kB (before), 550.8 kB (after)
 ! Using parallel search with 14 workers.
 ! ----------------------------------------------------------------------------
 !          Best Branches  Non-fixed    W       Branch decision
                        0         27                 -
 + New bound is 41
 ! Using iterative diving.
 ! Using temporal relaxation.
 *            49       69  1.07s        1      (gap is 16.33%)
 *            48      162  1.07s        1      (gap is 14.58%)
 *            47      253  1.07s        1      (gap is 12.77%)
 *            44      476  1.07s        1      (gap is 6.82%)
 *            43     3606  1.07s        1      (gap is 4.65%)
 ! Using failure-directed search.
 *            42     7725  1.07s        2      (gap is 2.38%)
 *            41    22316  2.02s        3      (gap is 0.00%)
 ! ----------------------------------------------------------------------------
 ! Search completed, 7 solutions found.
 ! Best objective         : 41 (optimal - effective tol. is 0)
 ! Best bound             : 41
 ! ----------------------------------------------------------------------------
 ! Number of branches     : 469350
 ! Number of fails        : 146982
 ! Total memory usage     : 7.2 MB (7.2 MB CP Optimizer + 0.1 MB Concert)
 ! Time spent in solve    : 2.58s (2.58s engine + 0.00s extraction)
 ! Search speed (br. / s) : 182626.5
 ! ----------------------------------------------------------------------------
(41,)
(0,)
(41,)
Objective value: 41
Solution is optimal.
Optimal solution found
